; benchmark generated from python API
(set-info :status unknown)
(declare-fun S_2 () Real)
(declare-fun S_3 () Real)
(declare-fun S_1 () Real)
(declare-fun A_1 () Real)
(declare-fun L_1 () Real)
(declare-fun L_2 () Real)
(declare-fun A_2 () Real)
(declare-fun S_0 () Real)
(declare-fun A_0 () Real)
(declare-fun L_0 () Real)
(declare-fun A_3 () Real)
(declare-fun Q_3 () Real)
(declare-fun L_3 () Real)
(assert
 (let (($x950 (>= Q_3 0.0)))
 (let (($x6557 (<= (+ (* (- 1.0) A_0) L_0 S_2 (* 2.0 A_1) (* (- 2.0) A_2)) 0.0)))
 (let ((?x1231 (* (- 2.0) A_2)))
 (let ((?x2497 (* 2.0 A_1)))
 (let ((?x1232 (* 2.0 L_2)))
 (let ((?x516 (* (- 1.0) A_0)))
 (let (($x2494 (<= (+ ?x516 L_0 S_2 ?x1232 (* (- 2.0) L_1) ?x2497 ?x1231) 0.0)))
 (let (($x2050 (<= (+ (* (- 1.0) Q_3) A_0 (* (- 1.0) S_1) (* (- 1.0) L_1)) 0.0)))
 (let (($x1170 (<= (+ A_2 (* (- 1.0) L_2) (* (- 1.0) S_3)) 0.0)))
 (let ((?x512 (* (- 1.0) L_1)))
 (let ((?x521 (* (- 1.0) L_2)))
 (let (($x371 (= ?x521 ?x512)))
 (let ((?x910 (* (- 3.0) A_2)))
 (let ((?x935 (* 3.0 A_1)))
 (let ((?x909 (* 3.0 L_2)))
 (let ((?x908 (* (- 3.0) L_1)))
 (let ((?x477 (* (- 1.0) Q_3)))
 (let ((?x470 (* (- 1.0) L_3)))
 (let (($x942 (<= (+ ?x470 ?x477 A_3 ?x516 L_0 ?x908 ?x909 ?x935 ?x910) 0.0)))
 (let (($x389 (= ?x470 ?x512)))
 (let (($x5630 (<= (+ (* (- 1.0) L_0) (* (- 2.0) S_2) S_0 ?x521 L_1 A_2) 0.0)))
 (let ((?x640 (* (- 1.0) A_1)))
 (let ((?x503 (* (- 1.0) L_0)))
 (let ((?x1147 (* (- 1.0) S_2)))
 (let (($x1145 (<= (+ ?x512 A_1 ?x1147) 0.0)))
 (let (($x393 (= ?x512 ?x503)))
 (let (($x7799 (or $x393 $x1145 (<= (+ A_2 ?x521 A_0 ?x1147 ?x503 L_1 ?x640) 0.0) $x5630)))
 (let (($x2492 (<= (+ ?x516 L_0 S_1 L_2 ?x512 A_1 (* (- 1.0) A_2)) 0.0)))
 (let ((?x1198 (* 2.0 A_2)))
 (let ((?x1963 (* (- 2.0) A_1)))
 (let ((?x1176 (* 2.0 L_1)))
 (let ((?x1199 (* (- 2.0) L_2)))
 (let ((?x1038 (* (- 1.0) S_3)))
 (let (($x7789 (or $x393 $x1170 (<= (+ A_0 ?x1038 ?x503 ?x1199 ?x1176 ?x1963 ?x1198) 0.0) (<= (+ ?x516 ?x1038 S_0 ?x521 L_1 A_2) 0.0))))
 (let ((?x831 (* 2.0 A_0)))
 (let ((?x1218 (* (- 2.0) S_1)))
 (let (($x3490 (<= (+ ?x908 A_1 ?x470 ?x477 A_3 ?x1218 ?x1232 ?x831 ?x1231) 0.0)))
 (let ((?x907 (* (- 3.0) S_1)))
 (let ((?x906 (* 4.0 A_0)))
 (let ((?x872 (* 2.0 A_3)))
 (let ((?x890 (* (- 2.0) Q_3)))
 (let ((?x836 (* (- 2.0) L_3)))
 (let (($x16026 (or (<= (+ ?x836 ?x890 ?x872 ?x906 ?x503 ?x907 ?x908 ?x909 ?x910) 0.0) $x2050 (not (<= (+ ?x836 ?x890 ?x872 ?x906 ?x503 ?x907 ?x910) 0.0)) $x3490)))
 (let (($x2167 (<= (+ (* (- 5.0) L_3) ?x890 ?x872 ?x906 ?x503 ?x907 ?x909 ?x910) 0.0)))
 (let (($x15557 (or $x2050 $x2167 $x3490 (not (<= (+ ?x512 A_1 ?x470 ?x477 A_3 ?x1218 ?x831 ?x1231) 0.0)))))
 (let (($x3416 (<= (+ ?x512 A_1 ?x470 ?x477 A_3 ?x1218 ?x831 ?x1231) 0.0)))
 (let ((?x913 (* (- 2.0) A_0)))
 (let ((?x635 (* (- 1.0) A_3)))
 (let ((?x921 (* 3.0 L_1)))
 (let (($x3487 (<= (+ ?x921 ?x640 L_3 Q_3 ?x635 (* 2.0 S_0) ?x1199 ?x913 ?x1198) 0.0)))
 (let (($x1972 (<= (+ ?x470 A_3 ?x831 (* (- 2.0) L_0) ?x921 (* (- 3.0) A_1)) 0.0)))
 (let (($x1168 (= Q_3 0.0)))
 (let (($x5980 (<= (+ ?x512 S_2 (* (- 1.0) S_1) L_2 A_0 (* (- 1.0) A_2)) 0.0)))
 (let ((?x923 (* 3.0 A_2)))
 (let ((?x945 (* (- 3.0) A_1)))
 (let ((?x922 (* (- 3.0) L_2)))
 (let ((?x902 (* (- 2.0) A_3)))
 (let ((?x901 (* 2.0 Q_3)))
 (let ((?x900 (* 2.0 L_3)))
 (let ((?x924 (+ ?x900 ?x901 ?x902 (* (- 4.0) A_0) L_0 (* 3.0 S_0) ?x921 ?x922 ?x923)))
 (let (($x15826 (or $x393 (<= ?x924 0.0) $x1168 (<= (+ L_3 Q_3 ?x635 A_0 ?x503 ?x922 ?x921 ?x945 ?x923) 0.0))))
 (let (($x1197 (<= (+ ?x923 ?x900 ?x901 ?x902 ?x922 L_0 ?x516) 0.0)))
 (let (($x15955 (or $x389 $x1197 (<= (+ L_3 ?x890 ?x635 ?x913 (* 2.0 L_0) ?x908 ?x935) 0.0) (not (<= (+ ?x900 ?x477 ?x902 ?x516 L_0 ?x922 ?x923) 0.0)))))
 (let (($x3050 (<= (+ ?x900 ?x477 ?x902 ?x516 L_0 ?x922 ?x923) 0.0)))
 (let (($x375 (= ?x470 ?x521)))
 (let (($x3392 (<= (+ ?x512 A_1 ?x470 Q_3 A_3 ?x1232 ?x1231) 0.0)))
 (let (($x949 (<= (+ ?x836 ?x890 ?x872 A_0 ?x503 ?x909 ?x910) 0.0)))
 (let (($x3289 (<= (+ L_1 ?x640 L_3 ?x477 ?x635 ?x1199 ?x1198) 0.0)))
 (let (($x2152 (<= (+ ?x470 ?x901 A_3 ?x831 (* (- 2.0) L_0) ?x921 ?x945) 0.0)))
 (let (($x582 (not (<= (+ ?x470 ?x477 A_3 ?x831 (* (- 2.0) L_0) ?x921 ?x945) 0.0))))
 (let (($x15316 (or $x371 (not $x949) (<= (+ ?x836 Q_3 ?x872 A_0 ?x503 ?x909 ?x910) 0.0) $x3392)))
 (let (($x15320 (or (<= (+ ?x900 ?x901 ?x902 ?x516 L_0 (* 3.0 S_2)) 0.0) $x1168)))
 (let (($x1182 (<= (+ Q_3 L_1 S_0 ?x516) 0.0)))
 (let (($x1203 (<= (+ A_2 L_3 Q_3 ?x635 ?x521 ?x512 A_1 L_0 ?x516) 0.0)))
 (let (($x1789 (<= (+ (* (- 1.0) A_2) ?x470 A_3 L_2 A_0 ?x503 L_1 ?x640) 0.0)))
 (let (($x15327 (or $x1168 (<= (+ L_1 ?x640 L_3 Q_3 ?x635 (* 2.0 S_2)) 0.0))))
 (let (($x4632 (or (<= (+ ?x836 ?x890 ?x872 A_0 ?x503 (* (- 3.0) S_3)) 0.0) $x1170 (<= (+ ?x512 A_1 ?x470 ?x477 A_3 (* (- 2.0) S_3)) 0.0))))
 (let (($x917 (<= (+ L_3 Q_3 ?x635 ?x913 (* 2.0 L_0) (* 3.0 S_1)) 0.0)))
 (let (($x10038 (or $x917 $x1168 (<= (+ A_2 L_3 Q_3 ?x635 ?x521 ?x516 L_0 S_1) 0.0))))
 (let (($x15476 (or $x389 (not $x1197) $x1168 (<= (+ A_2 L_3 ?x635 ?x521 ?x516 L_0 ?x512 A_1) 0.0))))
 (let (($x899 (<= (+ ?x470 ?x477 A_3 ?x831 (* (- 2.0) L_0) (* (- 3.0) S_2)) 0.0)))
 (let (($x1791 (<= (+ (* (- 1.0) A_2) ?x470 ?x477 A_3 L_2 A_0 ?x1147 ?x503) 0.0)))
 (and (<= ?x512 ?x503) (<= ?x470 ?x521) (<= ?x521 ?x512) (or $x371 (<= (+ ?x470 ?x477 A_3 ?x516 L_0 ?x935 ?x910) 0.0) $x1168) (or $x1145 $x1791) (or $x899 $x1145) (or $x375 $x2050) (or $x375 $x1145 (not $x1168)) (or $x371 $x942 $x1145) $x15476 $x10038 $x4632 (or $x393 $x582 $x1182 $x2152) $x15327 (or $x1170 (<= (+ ?x516 ?x1038 L_0 (* 2.0 S_1)) 0.0)) (or $x393 $x1182 $x1203 $x1789) (or $x393 (not $x1203) $x1168 $x1182) $x15320 $x15316 (or $x375 $x582 $x2152 $x3289) (or $x375 $x1170 (not $x1168)) (or $x375 $x1168 $x3289) (or $x371 $x949 $x1168 $x3392) (or $x371 $x942 $x1170) (or $x375 $x1168 $x3050) $x15955 (or $x371 $x942 $x1168) $x15826 (or $x371 $x5980) (or $x393 $x1168 $x1972 $x3487) (or $x389 $x2050 $x2167 $x3416) $x15557 $x16026 $x7789 (or $x371 $x1170 $x2492) (or $x371 $x1145 $x2492) $x7799 (or $x389 $x942 $x2050) (or $x371 $x1170 $x2494) (or $x389 $x2050 $x6557) (or $x2050 $x2494 (not $x6557)) $x950 (<= (+ L_3 Q_3 ?x635 S_3) 0.0) (<= (+ S_0 L_0 ?x516) 0.0) (<= (+ (* (- 1.0) S_1) S_0) 0.0) (<= (+ (* (- 1.0) A_2) L_2 S_2) 0.0) (<= (+ L_1 ?x640 S_1) 0.0) (<= (+ ?x1147 S_1) 0.0) (<= (+ ?x1038 S_2) 0.0)))))))))))))))))))))))))))))))))))))))))))))))))))))))))))))))))))))))))))))))))))))
(check-sat)
